p edge 102 353
e 1 3
e 1 10
e 1 11
e 1 17
e 1 20
e 1 27
e 1 30
e 1 32
e 1 36
e 1 40
e 1 50
e 1 65
e 1 94
e 2 6
e 2 7
e 2 12
e 2 13
e 2 15
e 2 22
e 2 24
e 2 25
e 2 26
e 2 29
e 2 34
e 2 44
e 2 47
e 2 51
e 2 56
e 2 89
e 3 7
e 3 11
e 3 12
e 3 20
e 3 36
e 3 46
e 3 65
e 3 69
e 3 73
e 3 91
e 4 5
e 4 6
e 4 14
e 4 21
e 4 34
e 4 50
e 4 51
e 4 52
e 4 53
e 4 59
e 4 62
e 4 76
e 5 7
e 5 8
e 5 18
e 5 23
e 5 25
e 5 28
e 5 34
e 5 35
e 5 37
e 5 44
e 5 48
e 5 53
e 5 55
e 5 64
e 5 67
e 6 14
e 6 25
e 6 34
e 6 42
e 6 48
e 6 50
e 6 51
e 6 53
e 6 67
e 6 89
e 7 13
e 7 19
e 7 23
e 7 47
e 7 64
e 8 9
e 8 18
e 8 28
e 8 37
e 8 48
e 8 55
e 8 79
e 8 81
e 9 13
e 9 24
e 9 25
e 9 46
e 9 55
e 9 88
e 10 20
e 10 27
e 10 40
e 10 61
e 10 63
e 10 72
e 10 85
e 11 15
e 11 20
e 11 22
e 11 23
e 11 26
e 11 36
e 11 41
e 11 52
e 11 58
e 11 61
e 11 72
e 11 75
e 11 85
e 12 15
e 12 23
e 12 39
e 12 47
e 12 78
e 12 79
e 12 81
e 12 88
e 12 91
e 12 97
e 13 37
e 13 46
e 14 16
e 14 21
e 14 31
e 14 34
e 14 42
e 14 50
e 14 51
e 14 53
e 14 67
e 15 24
e 15 26
e 15 29
e 15 47
e 15 49
e 15 52
e 15 54
e 15 56
e 16 17
e 16 19
e 16 31
e 16 32
e 16 36
e 16 42
e 16 50
e 16 53
e 16 57
e 17 20
e 17 31
e 17 32
e 17 43
e 17 65
e 17 73
e 17 74
e 17 94
e 18 28
e 18 37
e 18 44
e 18 48
e 19 33
e 19 36
e 19 57
e 19 77
e 19 90
e 20 36
e 20 40
e 20 63
e 20 65
e 20 73
e 20 74
e 20 94
e 21 22
e 21 36
e 21 38
e 21 39
e 21 41
e 21 51
e 21 52
e 21 54
e 21 71
e 21 102
e 22 23
e 22 24
e 22 41
e 22 44
e 22 47
e 22 54
e 22 58
e 22 71
e 22 72
e 22 75
e 23 25
e 23 35
e 23 38
e 23 41
e 23 55
e 23 56
e 23 64
e 23 75
e 23 88
e 24 44
e 24 47
e 24 49
e 24 54
e 25 30
e 25 35
e 25 55
e 25 67
e 25 89
e 26 29
e 26 44
e 26 52
e 26 56
e 26 86
e 27 30
e 27 32
e 27 40
e 27 50
e 28 29
e 28 37
e 28 44
e 28 48
e 28 71
e 28 93
e 29 66
e 29 92
e 29 101
e 30 32
e 30 35
e 30 42
e 30 45
e 30 50
e 30 60
e 30 80
e 30 82
e 31 32
e 31 45
e 31 50
e 31 53
e 31 65
e 31 84
e 32 42
e 32 43
e 32 50
e 32 60
e 32 80
e 33 45
e 33 46
e 33 76
e 33 90
e 34 39
e 34 51
e 34 53
e 34 56
e 34 67
e 34 68
e 34 99
e 35 55
e 35 64
e 35 78
e 36 39
e 37 48
e 38 41
e 38 52
e 38 56
e 38 76
e 38 102
e 39 47
e 39 68
e 39 99
e 40 63
e 40 68
e 40 83
e 41 44
e 41 56
e 41 75
e 41 86
e 41 102
e 42 50
e 42 53
e 42 60
e 42 62
e 42 80
e 43 58
e 43 87
e 44 47
e 44 52
e 44 86
e 45 46
e 46 65
e 46 69
e 46 73
e 46 91
e 47 54
e 49 56
e 49 69
e 50 53
e 51 53
e 51 56
e 52 76
e 53 67
e 54 66
e 54 71
e 56 86
e 57 58
e 57 77
e 57 84
e 58 61
e 58 72
e 58 87
e 59 62
e 59 70
e 59 83
e 60 80
e 60 95
e 60 96
e 61 69
e 61 72
e 61 77
e 61 85
e 61 87
e 62 63
e 62 70
e 63 68
e 63 83
e 65 69
e 65 73
e 65 91
e 65 94
e 66 92
e 68 83
e 68 99
e 69 73
e 69 77
e 69 87
e 69 91
e 70 98
e 71 93
e 72 85
e 73 74
e 73 91
e 74 90
e 77 87
e 78 97
e 79 81
e 84 100
e 95 96
